<number of tasks>
100

<cycle time>
1000

<order strength>
0.595


<task times>
1 417
2 491
3 107
4 110
5 473
6 69
7 569
8 181
9 93
10 45
11 130
12 126
13 45
14 549
15 171
16 509
17 103
18 160
19 72
20 226
21 94
22 292
23 180
24 168
25 193
26 77
27 250
28 48
29 133
30 195
31 207
32 138
33 204
34 48
35 165
36 443
37 182
38 294
39 110
40 109
41 466
42 248
43 55
44 424
45 194
46 228
47 137
48 315
49 31
50 54
51 205
52 199
53 243
54 182
55 34
56 146
57 181
58 180
59 101
60 553
61 20
62 177
63 184
64 24
65 552
66 399
67 192
68 449
69 211
70 453
71 490
72 227
73 482
74 182
75 57
76 58
77 321
78 145
79 139
80 529
81 138
82 225
83 105
84 153
85 175
86 31
87 47
88 105
89 102
90 207
91 177
92 188
93 283
94 116
95 28
96 403
97 488
98 596
99 486
100 51

<precedence relations>
1,5
2,6
3,7
4,8
4,9
4,10
4,11
5,12
6,13
7,14
8,15
8,16
8,19
9,19
9,24
10,15
10,19
10,24
11,15
11,16
11,17
11,18
12,22
13,20
14,22
15,21
15,22
15,23
16,39
16,44
16,52
17,75
18,24
18,25
19,22
19,23
19,25
20,26
21,27
22,28
23,28
23,29
23,30
24,53
25,29
25,34
26,31
27,33
28,32
28,33
28,34
29,33
29,42
30,34
31,35
32,36
33,37
33,38
33,46
34,38
34,39
34,43
35,41
36,43
37,40
38,41
38,44
38,45
39,42
39,46
40,52
41,49
41,50
41,52
41,60
42,47
42,64
42,72
42,77
43,98
44,48
44,77
44,78
45,51
45,59
46,53
47,54
48,55
49,56
50,57
51,58
52,59
52,61
53,60
53,61
54,63
55,64
56,62
57,64
58,64
59,64
59,65
60,93
61,65
61,80
62,67
63,68
64,66
64,71
65,69
65,70
65,72
66,74
67,75
68,75
69,73
69,77
70,76
70,78
70,98
71,76
72,78
73,79
74,80
75,86
75,87
75,98
77,82
77,99
78,81
79,86
80,83
80,85
80,86
81,84
81,87
82,88
83,89
84,90
85,91
86,99
87,92
87,93
87,94
88,100
89,98
90,95
91,96
92,97
93,99
93,100

<end>
